\* Transportation_problem *\
Minimize
OBJ: 19 X_('P1',_'M1') + 22 X_('P1',_'M10') + 17 X_('P1',_'M2')
 + 18 X_('P1',_'M3') + 19 X_('P1',_'M4') + 22 X_('P1',_'M5')
 + 16 X_('P1',_'M6') + 17 X_('P1',_'M7') + 15 X_('P1',_'M8')
 + 16 X_('P1',_'M9') + 13 X_('P10',_'M1') + 16 X_('P10',_'M10')
 + 14 X_('P10',_'M2') + 12 X_('P10',_'M3') + 16 X_('P10',_'M4')
 + 18 X_('P10',_'M5') + 17 X_('P10',_'M6') + 14 X_('P10',_'M7')
 + 14 X_('P10',_'M8') + 18 X_('P10',_'M9') + 14 X_('P11',_'M1')
 + 10 X_('P11',_'M10') + 9 X_('P11',_'M2') + 13 X_('P11',_'M3')
 + 13 X_('P11',_'M4') + 10 X_('P11',_'M5') + 12 X_('P11',_'M6')
 + 14 X_('P11',_'M7') + 12 X_('P11',_'M8') + 7 X_('P11',_'M9')
 + 29 X_('P12',_'M1') + 26 X_('P12',_'M10') + 30 X_('P12',_'M2')
 + 32 X_('P12',_'M3') + 23 X_('P12',_'M4') + 28 X_('P12',_'M5')
 + 28 X_('P12',_'M6') + 27 X_('P12',_'M7') + 26 X_('P12',_'M8')
 + 26 X_('P12',_'M9') + 34 X_('P13',_'M1') + 32 X_('P13',_'M10')
 + 32 X_('P13',_'M2') + 31 X_('P13',_'M3') + 35 X_('P13',_'M4')
 + 33 X_('P13',_'M5') + 27 X_('P13',_'M6') + 27 X_('P13',_'M7')
 + 30 X_('P13',_'M8') + 28 X_('P13',_'M9') + 27 X_('P14',_'M1')
 + 24 X_('P14',_'M10') + 27 X_('P14',_'M2') + 23 X_('P14',_'M3')
 + 20 X_('P14',_'M4') + 28 X_('P14',_'M5') + 22 X_('P14',_'M6')
 + 22 X_('P14',_'M7') + 25 X_('P14',_'M8') + 23 X_('P14',_'M9')
 + 29 X_('P15',_'M1') + 33 X_('P15',_'M10') + 35 X_('P15',_'M2')
 + 33 X_('P15',_'M3') + 32 X_('P15',_'M4') + 29 X_('P15',_'M5')
 + 32 X_('P15',_'M6') + 33 X_('P15',_'M7') + 32 X_('P15',_'M8')
 + 29 X_('P15',_'M9') + 19 X_('P16',_'M1') + 13 X_('P16',_'M10')
 + 17 X_('P16',_'M2') + 21 X_('P16',_'M3') + 17 X_('P16',_'M4')
 + 17 X_('P16',_'M5') + 13 X_('P16',_'M6') + 21 X_('P16',_'M7')
 + 17 X_('P16',_'M8') + 19 X_('P16',_'M9') + 28 X_('P17',_'M1')
 + 26 X_('P17',_'M10') + 25 X_('P17',_'M2') + 26 X_('P17',_'M3')
 + 24 X_('P17',_'M4') + 28 X_('P17',_'M5') + 29 X_('P17',_'M6')
 + 31 X_('P17',_'M7') + 23 X_('P17',_'M8') + 24 X_('P17',_'M9')
 + 23 X_('P18',_'M1') + 26 X_('P18',_'M10') + 27 X_('P18',_'M2')
 + 22 X_('P18',_'M3') + 23 X_('P18',_'M4') + 24 X_('P18',_'M5')
 + 21 X_('P18',_'M6') + 24 X_('P18',_'M7') + 23 X_('P18',_'M8')
 + 24 X_('P18',_'M9') + 24 X_('P19',_'M1') + 29 X_('P19',_'M10')
 + 24 X_('P19',_'M2') + 23 X_('P19',_'M3') + 22 X_('P19',_'M4')
 + 23 X_('P19',_'M5') + 28 X_('P19',_'M6') + 28 X_('P19',_'M7')
 + 22 X_('P19',_'M8') + 29 X_('P19',_'M9') + 17 X_('P2',_'M1')
 + 11 X_('P2',_'M10') + 17 X_('P2',_'M2') + 9 X_('P2',_'M3')
 + 18 X_('P2',_'M4') + 10 X_('P2',_'M5') + 12 X_('P2',_'M6')
 + 13 X_('P2',_'M7') + 15 X_('P2',_'M8') + 10 X_('P2',_'M9')
 + 21 X_('P20',_'M1') + 21 X_('P20',_'M10') + 25 X_('P20',_'M2')
 + 24 X_('P20',_'M3') + 18 X_('P20',_'M4') + 19 X_('P20',_'M5')
 + 22 X_('P20',_'M6') + 19 X_('P20',_'M7') + 25 X_('P20',_'M8')
 + 18 X_('P20',_'M9') + 30 X_('P3',_'M1') + 29 X_('P3',_'M10')
 + 34 X_('P3',_'M2') + 36 X_('P3',_'M3') + 30 X_('P3',_'M4')
 + 29 X_('P3',_'M5') + 37 X_('P3',_'M6') + 33 X_('P3',_'M7')
 + 34 X_('P3',_'M8') + 31 X_('P3',_'M9') + 31 X_('P4',_'M1')
 + 34 X_('P4',_'M10') + 34 X_('P4',_'M2') + 36 X_('P4',_'M3')
 + 36 X_('P4',_'M4') + 29 X_('P4',_'M5') + 31 X_('P4',_'M6')
 + 32 X_('P4',_'M7') + 36 X_('P4',_'M8') + 33 X_('P4',_'M9')
 + 27 X_('P5',_'M1') + 21 X_('P5',_'M10') + 21 X_('P5',_'M2')
 + 25 X_('P5',_'M3') + 22 X_('P5',_'M4') + 21 X_('P5',_'M5')
 + 22 X_('P5',_'M6') + 22 X_('P5',_'M7') + 29 X_('P5',_'M8')
 + 26 X_('P5',_'M9') + 15 X_('P6',_'M1') + 9 X_('P6',_'M10')
 + 17 X_('P6',_'M2') + 17 X_('P6',_'M3') + 17 X_('P6',_'M4')
 + 12 X_('P6',_'M5') + 9 X_('P6',_'M6') + 13 X_('P6',_'M7')
 + 12 X_('P6',_'M8') + 11 X_('P6',_'M9') + 6 X_('P7',_'M1')
 + 10 X_('P7',_'M10') + 12 X_('P7',_'M2') + 14 X_('P7',_'M3')
 + 15 X_('P7',_'M4') + 11 X_('P7',_'M5') + 14 X_('P7',_'M6')
 + 12 X_('P7',_'M7') + 6 X_('P7',_'M8') + 14 X_('P7',_'M9')
 + 26 X_('P8',_'M1') + 24 X_('P8',_'M10') + 23 X_('P8',_'M2')
 + 24 X_('P8',_'M3') + 26 X_('P8',_'M4') + 20 X_('P8',_'M5')
 + 21 X_('P8',_'M6') + 27 X_('P8',_'M7') + 26 X_('P8',_'M8')
 + 28 X_('P8',_'M9') + 35 X_('P9',_'M1') + 33 X_('P9',_'M10')
 + 33 X_('P9',_'M2') + 31 X_('P9',_'M3') + 30 X_('P9',_'M4')
 + 35 X_('P9',_'M5') + 33 X_('P9',_'M6') + 35 X_('P9',_'M7')
 + 30 X_('P9',_'M8') + 36 X_('P9',_'M9')
Subject To
New_constraint_plant_P10__market_M10_: X_('P10',_'M10') <= 30.5
New_constraint_plant_P10__market_M1_: X_('P10',_'M1') <= 19
New_constraint_plant_P10__market_M2_: X_('P10',_'M2') <= 64.5
New_constraint_plant_P10__market_M3_: X_('P10',_'M3') <= 52
New_constraint_plant_P10__market_M4_: X_('P10',_'M4') <= 37.5
New_constraint_plant_P10__market_M5_: X_('P10',_'M5') <= 63
New_constraint_plant_P10__market_M6_: X_('P10',_'M6') <= 45
New_constraint_plant_P10__market_M7_: X_('P10',_'M7') <= 52.5
New_constraint_plant_P10__market_M8_: X_('P10',_'M8') <= 45.5
New_constraint_plant_P10__market_M9_: X_('P10',_'M9') <= 23.5
New_constraint_plant_P11__market_M10_: X_('P11',_'M10') <= 30.5
New_constraint_plant_P11__market_M1_: X_('P11',_'M1') <= 19
New_constraint_plant_P11__market_M2_: X_('P11',_'M2') <= 64.5
New_constraint_plant_P11__market_M3_: X_('P11',_'M3') <= 52
New_constraint_plant_P11__market_M4_: X_('P11',_'M4') <= 37.5
New_constraint_plant_P11__market_M5_: X_('P11',_'M5') <= 63
New_constraint_plant_P11__market_M6_: X_('P11',_'M6') <= 45
New_constraint_plant_P11__market_M7_: X_('P11',_'M7') <= 52.5
New_constraint_plant_P11__market_M8_: X_('P11',_'M8') <= 45.5
New_constraint_plant_P11__market_M9_: X_('P11',_'M9') <= 23.5
New_constraint_plant_P12__market_M10_: X_('P12',_'M10') <= 30.5
New_constraint_plant_P12__market_M1_: X_('P12',_'M1') <= 19
New_constraint_plant_P12__market_M2_: X_('P12',_'M2') <= 64.5
New_constraint_plant_P12__market_M3_: X_('P12',_'M3') <= 52
New_constraint_plant_P12__market_M4_: X_('P12',_'M4') <= 37.5
New_constraint_plant_P12__market_M5_: X_('P12',_'M5') <= 63
New_constraint_plant_P12__market_M6_: X_('P12',_'M6') <= 45
New_constraint_plant_P12__market_M7_: X_('P12',_'M7') <= 52.5
New_constraint_plant_P12__market_M8_: X_('P12',_'M8') <= 45.5
New_constraint_plant_P12__market_M9_: X_('P12',_'M9') <= 23.5
New_constraint_plant_P13__market_M10_: X_('P13',_'M10') <= 30.5
New_constraint_plant_P13__market_M1_: X_('P13',_'M1') <= 19
New_constraint_plant_P13__market_M2_: X_('P13',_'M2') <= 64.5
New_constraint_plant_P13__market_M3_: X_('P13',_'M3') <= 52
New_constraint_plant_P13__market_M4_: X_('P13',_'M4') <= 37.5
New_constraint_plant_P13__market_M5_: X_('P13',_'M5') <= 63
New_constraint_plant_P13__market_M6_: X_('P13',_'M6') <= 45
New_constraint_plant_P13__market_M7_: X_('P13',_'M7') <= 52.5
New_constraint_plant_P13__market_M8_: X_('P13',_'M8') <= 45.5
New_constraint_plant_P13__market_M9_: X_('P13',_'M9') <= 23.5
New_constraint_plant_P14__market_M10_: X_('P14',_'M10') <= 30.5
New_constraint_plant_P14__market_M1_: X_('P14',_'M1') <= 19
New_constraint_plant_P14__market_M2_: X_('P14',_'M2') <= 64.5
New_constraint_plant_P14__market_M3_: X_('P14',_'M3') <= 52
New_constraint_plant_P14__market_M4_: X_('P14',_'M4') <= 37.5
New_constraint_plant_P14__market_M5_: X_('P14',_'M5') <= 63
New_constraint_plant_P14__market_M6_: X_('P14',_'M6') <= 45
New_constraint_plant_P14__market_M7_: X_('P14',_'M7') <= 52.5
New_constraint_plant_P14__market_M8_: X_('P14',_'M8') <= 45.5
New_constraint_plant_P14__market_M9_: X_('P14',_'M9') <= 23.5
New_constraint_plant_P15__market_M10_: X_('P15',_'M10') <= 30.5
New_constraint_plant_P15__market_M1_: X_('P15',_'M1') <= 19
New_constraint_plant_P15__market_M2_: X_('P15',_'M2') <= 64.5
New_constraint_plant_P15__market_M3_: X_('P15',_'M3') <= 52
New_constraint_plant_P15__market_M4_: X_('P15',_'M4') <= 37.5
New_constraint_plant_P15__market_M5_: X_('P15',_'M5') <= 63
New_constraint_plant_P15__market_M6_: X_('P15',_'M6') <= 45
New_constraint_plant_P15__market_M7_: X_('P15',_'M7') <= 52.5
New_constraint_plant_P15__market_M8_: X_('P15',_'M8') <= 45.5
New_constraint_plant_P15__market_M9_: X_('P15',_'M9') <= 23.5
New_constraint_plant_P16__market_M10_: X_('P16',_'M10') <= 30.5
New_constraint_plant_P16__market_M1_: X_('P16',_'M1') <= 19
New_constraint_plant_P16__market_M2_: X_('P16',_'M2') <= 64.5
New_constraint_plant_P16__market_M3_: X_('P16',_'M3') <= 52
New_constraint_plant_P16__market_M4_: X_('P16',_'M4') <= 37.5
New_constraint_plant_P16__market_M5_: X_('P16',_'M5') <= 63
New_constraint_plant_P16__market_M6_: X_('P16',_'M6') <= 45
New_constraint_plant_P16__market_M7_: X_('P16',_'M7') <= 52.5
New_constraint_plant_P16__market_M8_: X_('P16',_'M8') <= 45.5
New_constraint_plant_P16__market_M9_: X_('P16',_'M9') <= 23.5
New_constraint_plant_P17__market_M10_: X_('P17',_'M10') <= 30.5
New_constraint_plant_P17__market_M1_: X_('P17',_'M1') <= 19
New_constraint_plant_P17__market_M2_: X_('P17',_'M2') <= 64.5
New_constraint_plant_P17__market_M3_: X_('P17',_'M3') <= 52
New_constraint_plant_P17__market_M4_: X_('P17',_'M4') <= 37.5
New_constraint_plant_P17__market_M5_: X_('P17',_'M5') <= 63
New_constraint_plant_P17__market_M6_: X_('P17',_'M6') <= 45
New_constraint_plant_P17__market_M7_: X_('P17',_'M7') <= 52.5
New_constraint_plant_P17__market_M8_: X_('P17',_'M8') <= 45.5
New_constraint_plant_P17__market_M9_: X_('P17',_'M9') <= 23.5
New_constraint_plant_P18__market_M10_: X_('P18',_'M10') <= 30.5
New_constraint_plant_P18__market_M1_: X_('P18',_'M1') <= 19
New_constraint_plant_P18__market_M2_: X_('P18',_'M2') <= 64.5
New_constraint_plant_P18__market_M3_: X_('P18',_'M3') <= 52
New_constraint_plant_P18__market_M4_: X_('P18',_'M4') <= 37.5
New_constraint_plant_P18__market_M5_: X_('P18',_'M5') <= 63
New_constraint_plant_P18__market_M6_: X_('P18',_'M6') <= 45
New_constraint_plant_P18__market_M7_: X_('P18',_'M7') <= 52.5
New_constraint_plant_P18__market_M8_: X_('P18',_'M8') <= 45.5
New_constraint_plant_P18__market_M9_: X_('P18',_'M9') <= 23.5
New_constraint_plant_P19__market_M10_: X_('P19',_'M10') <= 30.5
New_constraint_plant_P19__market_M1_: X_('P19',_'M1') <= 19
New_constraint_plant_P19__market_M2_: X_('P19',_'M2') <= 64.5
New_constraint_plant_P19__market_M3_: X_('P19',_'M3') <= 52
New_constraint_plant_P19__market_M4_: X_('P19',_'M4') <= 37.5
New_constraint_plant_P19__market_M5_: X_('P19',_'M5') <= 63
New_constraint_plant_P19__market_M6_: X_('P19',_'M6') <= 45
New_constraint_plant_P19__market_M7_: X_('P19',_'M7') <= 52.5
New_constraint_plant_P19__market_M8_: X_('P19',_'M8') <= 45.5
New_constraint_plant_P19__market_M9_: X_('P19',_'M9') <= 23.5
New_constraint_plant_P1__market_M10_: X_('P1',_'M10') <= 30.5
New_constraint_plant_P1__market_M1_: X_('P1',_'M1') <= 19
New_constraint_plant_P1__market_M2_: X_('P1',_'M2') <= 64.5
New_constraint_plant_P1__market_M3_: X_('P1',_'M3') <= 52
New_constraint_plant_P1__market_M4_: X_('P1',_'M4') <= 37.5
New_constraint_plant_P1__market_M5_: X_('P1',_'M5') <= 63
New_constraint_plant_P1__market_M6_: X_('P1',_'M6') <= 45
New_constraint_plant_P1__market_M7_: X_('P1',_'M7') <= 52.5
New_constraint_plant_P1__market_M8_: X_('P1',_'M8') <= 45.5
New_constraint_plant_P1__market_M9_: X_('P1',_'M9') <= 23.5
New_constraint_plant_P20__market_M10_: X_('P20',_'M10') <= 30.5
New_constraint_plant_P20__market_M1_: X_('P20',_'M1') <= 19
New_constraint_plant_P20__market_M2_: X_('P20',_'M2') <= 64.5
New_constraint_plant_P20__market_M3_: X_('P20',_'M3') <= 52
New_constraint_plant_P20__market_M4_: X_('P20',_'M4') <= 37.5
New_constraint_plant_P20__market_M5_: X_('P20',_'M5') <= 63
New_constraint_plant_P20__market_M6_: X_('P20',_'M6') <= 45
New_constraint_plant_P20__market_M7_: X_('P20',_'M7') <= 52.5
New_constraint_plant_P20__market_M8_: X_('P20',_'M8') <= 45.5
New_constraint_plant_P20__market_M9_: X_('P20',_'M9') <= 23.5
New_constraint_plant_P2__market_M10_: X_('P2',_'M10') <= 30.5
New_constraint_plant_P2__market_M1_: X_('P2',_'M1') <= 19
New_constraint_plant_P2__market_M2_: X_('P2',_'M2') <= 64.5
New_constraint_plant_P2__market_M3_: X_('P2',_'M3') <= 52
New_constraint_plant_P2__market_M4_: X_('P2',_'M4') <= 37.5
New_constraint_plant_P2__market_M5_: X_('P2',_'M5') <= 63
New_constraint_plant_P2__market_M6_: X_('P2',_'M6') <= 45
New_constraint_plant_P2__market_M7_: X_('P2',_'M7') <= 52.5
New_constraint_plant_P2__market_M8_: X_('P2',_'M8') <= 45.5
New_constraint_plant_P2__market_M9_: X_('P2',_'M9') <= 23.5
New_constraint_plant_P3__market_M10_: X_('P3',_'M10') <= 30.5
New_constraint_plant_P3__market_M1_: X_('P3',_'M1') <= 19
New_constraint_plant_P3__market_M2_: X_('P3',_'M2') <= 64.5
New_constraint_plant_P3__market_M3_: X_('P3',_'M3') <= 52
New_constraint_plant_P3__market_M4_: X_('P3',_'M4') <= 37.5
New_constraint_plant_P3__market_M5_: X_('P3',_'M5') <= 63
New_constraint_plant_P3__market_M6_: X_('P3',_'M6') <= 45
New_constraint_plant_P3__market_M7_: X_('P3',_'M7') <= 52.5
New_constraint_plant_P3__market_M8_: X_('P3',_'M8') <= 45.5
New_constraint_plant_P3__market_M9_: X_('P3',_'M9') <= 23.5
New_constraint_plant_P4__market_M10_: X_('P4',_'M10') <= 30.5
New_constraint_plant_P4__market_M1_: X_('P4',_'M1') <= 19
New_constraint_plant_P4__market_M2_: X_('P4',_'M2') <= 64.5
New_constraint_plant_P4__market_M3_: X_('P4',_'M3') <= 52
New_constraint_plant_P4__market_M4_: X_('P4',_'M4') <= 37.5
New_constraint_plant_P4__market_M5_: X_('P4',_'M5') <= 63
New_constraint_plant_P4__market_M6_: X_('P4',_'M6') <= 45
New_constraint_plant_P4__market_M7_: X_('P4',_'M7') <= 52.5
New_constraint_plant_P4__market_M8_: X_('P4',_'M8') <= 45.5
New_constraint_plant_P4__market_M9_: X_('P4',_'M9') <= 23.5
New_constraint_plant_P5__market_M10_: X_('P5',_'M10') <= 30.5
New_constraint_plant_P5__market_M1_: X_('P5',_'M1') <= 19
New_constraint_plant_P5__market_M2_: X_('P5',_'M2') <= 64.5
New_constraint_plant_P5__market_M3_: X_('P5',_'M3') <= 52
New_constraint_plant_P5__market_M4_: X_('P5',_'M4') <= 37.5
New_constraint_plant_P5__market_M5_: X_('P5',_'M5') <= 63
New_constraint_plant_P5__market_M6_: X_('P5',_'M6') <= 45
New_constraint_plant_P5__market_M7_: X_('P5',_'M7') <= 52.5
New_constraint_plant_P5__market_M8_: X_('P5',_'M8') <= 45.5
New_constraint_plant_P5__market_M9_: X_('P5',_'M9') <= 23.5
New_constraint_plant_P6__market_M10_: X_('P6',_'M10') <= 30.5
New_constraint_plant_P6__market_M1_: X_('P6',_'M1') <= 19
New_constraint_plant_P6__market_M2_: X_('P6',_'M2') <= 64.5
New_constraint_plant_P6__market_M3_: X_('P6',_'M3') <= 52
New_constraint_plant_P6__market_M4_: X_('P6',_'M4') <= 37.5
New_constraint_plant_P6__market_M5_: X_('P6',_'M5') <= 63
New_constraint_plant_P6__market_M6_: X_('P6',_'M6') <= 45
New_constraint_plant_P6__market_M7_: X_('P6',_'M7') <= 52.5
New_constraint_plant_P6__market_M8_: X_('P6',_'M8') <= 45.5
New_constraint_plant_P6__market_M9_: X_('P6',_'M9') <= 23.5
New_constraint_plant_P7__market_M10_: X_('P7',_'M10') <= 30.5
New_constraint_plant_P7__market_M1_: X_('P7',_'M1') <= 19
New_constraint_plant_P7__market_M2_: X_('P7',_'M2') <= 64.5
New_constraint_plant_P7__market_M3_: X_('P7',_'M3') <= 52
New_constraint_plant_P7__market_M4_: X_('P7',_'M4') <= 37.5
New_constraint_plant_P7__market_M5_: X_('P7',_'M5') <= 63
New_constraint_plant_P7__market_M6_: X_('P7',_'M6') <= 45
New_constraint_plant_P7__market_M7_: X_('P7',_'M7') <= 52.5
New_constraint_plant_P7__market_M8_: X_('P7',_'M8') <= 45.5
New_constraint_plant_P7__market_M9_: X_('P7',_'M9') <= 23.5
New_constraint_plant_P8__market_M10_: X_('P8',_'M10') <= 30.5
New_constraint_plant_P8__market_M1_: X_('P8',_'M1') <= 19
New_constraint_plant_P8__market_M2_: X_('P8',_'M2') <= 64.5
New_constraint_plant_P8__market_M3_: X_('P8',_'M3') <= 52
New_constraint_plant_P8__market_M4_: X_('P8',_'M4') <= 37.5
New_constraint_plant_P8__market_M5_: X_('P8',_'M5') <= 63
New_constraint_plant_P8__market_M6_: X_('P8',_'M6') <= 45
New_constraint_plant_P8__market_M7_: X_('P8',_'M7') <= 52.5
New_constraint_plant_P8__market_M8_: X_('P8',_'M8') <= 45.5
New_constraint_plant_P8__market_M9_: X_('P8',_'M9') <= 23.5
New_constraint_plant_P9__market_M10_: X_('P9',_'M10') <= 30.5
New_constraint_plant_P9__market_M1_: X_('P9',_'M1') <= 19
New_constraint_plant_P9__market_M2_: X_('P9',_'M2') <= 64.5
New_constraint_plant_P9__market_M3_: X_('P9',_'M3') <= 52
New_constraint_plant_P9__market_M4_: X_('P9',_'M4') <= 37.5
New_constraint_plant_P9__market_M5_: X_('P9',_'M5') <= 63
New_constraint_plant_P9__market_M6_: X_('P9',_'M6') <= 45
New_constraint_plant_P9__market_M7_: X_('P9',_'M7') <= 52.5
New_constraint_plant_P9__market_M8_: X_('P9',_'M8') <= 45.5
New_constraint_plant_P9__market_M9_: X_('P9',_'M9') <= 23.5
capacity_P10_: X_('P10',_'M1') + X_('P10',_'M10') + X_('P10',_'M2')
 + X_('P10',_'M3') + X_('P10',_'M4') + X_('P10',_'M5') + X_('P10',_'M6')
 + X_('P10',_'M7') + X_('P10',_'M8') + X_('P10',_'M9') <= 2
capacity_P11_: X_('P11',_'M1') + X_('P11',_'M10') + X_('P11',_'M2')
 + X_('P11',_'M3') + X_('P11',_'M4') + X_('P11',_'M5') + X_('P11',_'M6')
 + X_('P11',_'M7') + X_('P11',_'M8') + X_('P11',_'M9') <= 56
capacity_P12_: X_('P12',_'M1') + X_('P12',_'M10') + X_('P12',_'M2')
 + X_('P12',_'M3') + X_('P12',_'M4') + X_('P12',_'M5') + X_('P12',_'M6')
 + X_('P12',_'M7') + X_('P12',_'M8') + X_('P12',_'M9') <= 90
capacity_P13_: X_('P13',_'M1') + X_('P13',_'M10') + X_('P13',_'M2')
 + X_('P13',_'M3') + X_('P13',_'M4') + X_('P13',_'M5') + X_('P13',_'M6')
 + X_('P13',_'M7') + X_('P13',_'M8') + X_('P13',_'M9') <= 67
capacity_P14_: X_('P14',_'M1') + X_('P14',_'M10') + X_('P14',_'M2')
 + X_('P14',_'M3') + X_('P14',_'M4') + X_('P14',_'M5') + X_('P14',_'M6')
 + X_('P14',_'M7') + X_('P14',_'M8') + X_('P14',_'M9') <= 45
capacity_P15_: X_('P15',_'M1') + X_('P15',_'M10') + X_('P15',_'M2')
 + X_('P15',_'M3') + X_('P15',_'M4') + X_('P15',_'M5') + X_('P15',_'M6')
 + X_('P15',_'M7') + X_('P15',_'M8') + X_('P15',_'M9') <= 56
capacity_P16_: X_('P16',_'M1') + X_('P16',_'M10') + X_('P16',_'M2')
 + X_('P16',_'M3') + X_('P16',_'M4') + X_('P16',_'M5') + X_('P16',_'M6')
 + X_('P16',_'M7') + X_('P16',_'M8') + X_('P16',_'M9') <= 49
capacity_P17_: X_('P17',_'M1') + X_('P17',_'M10') + X_('P17',_'M2')
 + X_('P17',_'M3') + X_('P17',_'M4') + X_('P17',_'M5') + X_('P17',_'M6')
 + X_('P17',_'M7') + X_('P17',_'M8') + X_('P17',_'M9') <= 1
capacity_P18_: X_('P18',_'M1') + X_('P18',_'M10') + X_('P18',_'M2')
 + X_('P18',_'M3') + X_('P18',_'M4') + X_('P18',_'M5') + X_('P18',_'M6')
 + X_('P18',_'M7') + X_('P18',_'M8') + X_('P18',_'M9') <= 96
capacity_P19_: X_('P19',_'M1') + X_('P19',_'M10') + X_('P19',_'M2')
 + X_('P19',_'M3') + X_('P19',_'M4') + X_('P19',_'M5') + X_('P19',_'M6')
 + X_('P19',_'M7') + X_('P19',_'M8') + X_('P19',_'M9') <= 83
capacity_P1_: X_('P1',_'M1') + X_('P1',_'M10') + X_('P1',_'M2')
 + X_('P1',_'M3') + X_('P1',_'M4') + X_('P1',_'M5') + X_('P1',_'M6')
 + X_('P1',_'M7') + X_('P1',_'M8') + X_('P1',_'M9') <= 80
capacity_P20_: X_('P20',_'M1') + X_('P20',_'M10') + X_('P20',_'M2')
 + X_('P20',_'M3') + X_('P20',_'M4') + X_('P20',_'M5') + X_('P20',_'M6')
 + X_('P20',_'M7') + X_('P20',_'M8') + X_('P20',_'M9') <= 26
capacity_P2_: X_('P2',_'M1') + X_('P2',_'M10') + X_('P2',_'M2')
 + X_('P2',_'M3') + X_('P2',_'M4') + X_('P2',_'M5') + X_('P2',_'M6')
 + X_('P2',_'M7') + X_('P2',_'M8') + X_('P2',_'M9') <= 9
capacity_P3_: X_('P3',_'M1') + X_('P3',_'M10') + X_('P3',_'M2')
 + X_('P3',_'M3') + X_('P3',_'M4') + X_('P3',_'M5') + X_('P3',_'M6')
 + X_('P3',_'M7') + X_('P3',_'M8') + X_('P3',_'M9') <= 22
capacity_P4_: X_('P4',_'M1') + X_('P4',_'M10') + X_('P4',_'M2')
 + X_('P4',_'M3') + X_('P4',_'M4') + X_('P4',_'M5') + X_('P4',_'M6')
 + X_('P4',_'M7') + X_('P4',_'M8') + X_('P4',_'M9') <= 69
capacity_P5_: X_('P5',_'M1') + X_('P5',_'M10') + X_('P5',_'M2')
 + X_('P5',_'M3') + X_('P5',_'M4') + X_('P5',_'M5') + X_('P5',_'M6')
 + X_('P5',_'M7') + X_('P5',_'M8') + X_('P5',_'M9') <= 5
capacity_P6_: X_('P6',_'M1') + X_('P6',_'M10') + X_('P6',_'M2')
 + X_('P6',_'M3') + X_('P6',_'M4') + X_('P6',_'M5') + X_('P6',_'M6')
 + X_('P6',_'M7') + X_('P6',_'M8') + X_('P6',_'M9') <= 81
capacity_P7_: X_('P7',_'M1') + X_('P7',_'M10') + X_('P7',_'M2')
 + X_('P7',_'M3') + X_('P7',_'M4') + X_('P7',_'M5') + X_('P7',_'M6')
 + X_('P7',_'M7') + X_('P7',_'M8') + X_('P7',_'M9') <= 37
capacity_P8_: X_('P8',_'M1') + X_('P8',_'M10') + X_('P8',_'M2')
 + X_('P8',_'M3') + X_('P8',_'M4') + X_('P8',_'M5') + X_('P8',_'M6')
 + X_('P8',_'M7') + X_('P8',_'M8') + X_('P8',_'M9') <= 18
capacity_P9_: X_('P9',_'M1') + X_('P9',_'M10') + X_('P9',_'M2')
 + X_('P9',_'M3') + X_('P9',_'M4') + X_('P9',_'M5') + X_('P9',_'M6')
 + X_('P9',_'M7') + X_('P9',_'M8') + X_('P9',_'M9') <= 53
demand_M10_: X_('P1',_'M10') + X_('P10',_'M10') + X_('P11',_'M10')
 + X_('P12',_'M10') + X_('P13',_'M10') + X_('P14',_'M10') + X_('P15',_'M10')
 + X_('P16',_'M10') + X_('P17',_'M10') + X_('P18',_'M10') + X_('P19',_'M10')
 + X_('P2',_'M10') + X_('P20',_'M10') + X_('P3',_'M10') + X_('P4',_'M10')
 + X_('P5',_'M10') + X_('P6',_'M10') + X_('P7',_'M10') + X_('P8',_'M10')
 + X_('P9',_'M10') >= 61
demand_M1_: X_('P1',_'M1') + X_('P10',_'M1') + X_('P11',_'M1')
 + X_('P12',_'M1') + X_('P13',_'M1') + X_('P14',_'M1') + X_('P15',_'M1')
 + X_('P16',_'M1') + X_('P17',_'M1') + X_('P18',_'M1') + X_('P19',_'M1')
 + X_('P2',_'M1') + X_('P20',_'M1') + X_('P3',_'M1') + X_('P4',_'M1')
 + X_('P5',_'M1') + X_('P6',_'M1') + X_('P7',_'M1') + X_('P8',_'M1')
 + X_('P9',_'M1') >= 38
demand_M2_: X_('P1',_'M2') + X_('P10',_'M2') + X_('P11',_'M2')
 + X_('P12',_'M2') + X_('P13',_'M2') + X_('P14',_'M2') + X_('P15',_'M2')
 + X_('P16',_'M2') + X_('P17',_'M2') + X_('P18',_'M2') + X_('P19',_'M2')
 + X_('P2',_'M2') + X_('P20',_'M2') + X_('P3',_'M2') + X_('P4',_'M2')
 + X_('P5',_'M2') + X_('P6',_'M2') + X_('P7',_'M2') + X_('P8',_'M2')
 + X_('P9',_'M2') >= 129
demand_M3_: X_('P1',_'M3') + X_('P10',_'M3') + X_('P11',_'M3')
 + X_('P12',_'M3') + X_('P13',_'M3') + X_('P14',_'M3') + X_('P15',_'M3')
 + X_('P16',_'M3') + X_('P17',_'M3') + X_('P18',_'M3') + X_('P19',_'M3')
 + X_('P2',_'M3') + X_('P20',_'M3') + X_('P3',_'M3') + X_('P4',_'M3')
 + X_('P5',_'M3') + X_('P6',_'M3') + X_('P7',_'M3') + X_('P8',_'M3')
 + X_('P9',_'M3') >= 104
demand_M4_: X_('P1',_'M4') + X_('P10',_'M4') + X_('P11',_'M4')
 + X_('P12',_'M4') + X_('P13',_'M4') + X_('P14',_'M4') + X_('P15',_'M4')
 + X_('P16',_'M4') + X_('P17',_'M4') + X_('P18',_'M4') + X_('P19',_'M4')
 + X_('P2',_'M4') + X_('P20',_'M4') + X_('P3',_'M4') + X_('P4',_'M4')
 + X_('P5',_'M4') + X_('P6',_'M4') + X_('P7',_'M4') + X_('P8',_'M4')
 + X_('P9',_'M4') >= 75
demand_M5_: X_('P1',_'M5') + X_('P10',_'M5') + X_('P11',_'M5')
 + X_('P12',_'M5') + X_('P13',_'M5') + X_('P14',_'M5') + X_('P15',_'M5')
 + X_('P16',_'M5') + X_('P17',_'M5') + X_('P18',_'M5') + X_('P19',_'M5')
 + X_('P2',_'M5') + X_('P20',_'M5') + X_('P3',_'M5') + X_('P4',_'M5')
 + X_('P5',_'M5') + X_('P6',_'M5') + X_('P7',_'M5') + X_('P8',_'M5')
 + X_('P9',_'M5') >= 126
demand_M6_: X_('P1',_'M6') + X_('P10',_'M6') + X_('P11',_'M6')
 + X_('P12',_'M6') + X_('P13',_'M6') + X_('P14',_'M6') + X_('P15',_'M6')
 + X_('P16',_'M6') + X_('P17',_'M6') + X_('P18',_'M6') + X_('P19',_'M6')
 + X_('P2',_'M6') + X_('P20',_'M6') + X_('P3',_'M6') + X_('P4',_'M6')
 + X_('P5',_'M6') + X_('P6',_'M6') + X_('P7',_'M6') + X_('P8',_'M6')
 + X_('P9',_'M6') >= 90
demand_M7_: X_('P1',_'M7') + X_('P10',_'M7') + X_('P11',_'M7')
 + X_('P12',_'M7') + X_('P13',_'M7') + X_('P14',_'M7') + X_('P15',_'M7')
 + X_('P16',_'M7') + X_('P17',_'M7') + X_('P18',_'M7') + X_('P19',_'M7')
 + X_('P2',_'M7') + X_('P20',_'M7') + X_('P3',_'M7') + X_('P4',_'M7')
 + X_('P5',_'M7') + X_('P6',_'M7') + X_('P7',_'M7') + X_('P8',_'M7')
 + X_('P9',_'M7') >= 105
demand_M8_: X_('P1',_'M8') + X_('P10',_'M8') + X_('P11',_'M8')
 + X_('P12',_'M8') + X_('P13',_'M8') + X_('P14',_'M8') + X_('P15',_'M8')
 + X_('P16',_'M8') + X_('P17',_'M8') + X_('P18',_'M8') + X_('P19',_'M8')
 + X_('P2',_'M8') + X_('P20',_'M8') + X_('P3',_'M8') + X_('P4',_'M8')
 + X_('P5',_'M8') + X_('P6',_'M8') + X_('P7',_'M8') + X_('P8',_'M8')
 + X_('P9',_'M8') >= 91
demand_M9_: X_('P1',_'M9') + X_('P10',_'M9') + X_('P11',_'M9')
 + X_('P12',_'M9') + X_('P13',_'M9') + X_('P14',_'M9') + X_('P15',_'M9')
 + X_('P16',_'M9') + X_('P17',_'M9') + X_('P18',_'M9') + X_('P19',_'M9')
 + X_('P2',_'M9') + X_('P20',_'M9') + X_('P3',_'M9') + X_('P4',_'M9')
 + X_('P5',_'M9') + X_('P6',_'M9') + X_('P7',_'M9') + X_('P8',_'M9')
 + X_('P9',_'M9') >= 47
End
